
Gurobi 6.5.2 (linux64) logging started Mon 03 Oct 2016 10:54:45 PM EDT

Warning for adding variables: zero or small (< 1e-13) coefficients, ignored
Optimize a model with 9 rows, 11 columns and 33 nonzeros
Model has 8 quadratic objective terms
Coefficient statistics:
  Matrix range    [5e-02, 1e+00]
  Objective range [0e+00, 0e+00]
  Bounds range    [0e+00, 0e+00]
  RHS range       [1e+00, 1e+00]
Presolve removed 1 rows and 1 columns
Presolve time: 0.00s
Presolved: 8 rows, 10 columns, 31 nonzeros
Presolved model has 8 quadratic objective terms
Ordering time: 0.00s

Barrier statistics:
 Free vars  : 4
 AA' NZ     : 2.800e+01
 Factor NZ  : 3.600e+01
 Factor Ops : 2.040e+02 (less than 1 second per iteration)
 Threads    : 1

                  Objective                Residual
Iter       Primal          Dual         Primal    Dual     Compl     Time
   0   7.50857004e+05 -7.50861006e+05  1.80e+03 1.00e+03  1.00e+06     0s
   1   5.16262844e+04 -5.38221191e+04  1.79e+02 9.95e+01  1.13e+05     0s
   2   1.89956094e+03 -4.73598367e+03  1.53e+01 8.50e+00  1.05e+04     0s
   3   1.09299368e+00 -2.09407711e+03  2.40e-01 1.34e-01  5.05e+02     0s
   4   4.85393317e-01 -4.38003268e+02  2.40e-07 1.34e-07  7.31e+01     0s
   5   4.85302188e-01 -2.74032164e-01  1.76e-10 9.78e-11  1.27e-01     0s
   6   4.61106027e-01  3.54476408e-01  1.32e-11 7.31e-12  1.78e-02     0s
   7   4.50265654e-01  4.32162075e-01  2.83e-16 3.61e-16  3.02e-03     0s
   8   4.49757989e-01  4.49632133e-01  8.04e-17 7.84e-16  2.10e-05     0s
   9   4.49722258e-01  4.49722131e-01  2.29e-17 3.32e-17  2.11e-08     0s
  10   4.49722222e-01  4.49722222e-01  1.38e-16 2.29e-16  2.11e-11     0s

Barrier solved model in 10 iterations and 0.01 seconds
Optimal objective 4.49722222e-01


Gurobi 6.5.2 (linux64) logging started Mon Oct  3 22:55:43 2016

Warning for adding variables: zero or small (< 1e-13) coefficients, ignored
Optimize a model with 9 rows, 11 columns and 33 nonzeros
Model has 8 quadratic objective terms
Coefficient statistics:
  Matrix range    [1e-01, 2e+00]
  Objective range [0e+00, 0e+00]
  Bounds range    [0e+00, 0e+00]
  RHS range       [1e+00, 1e+00]
Presolve time: 0.00s
Presolved: 9 rows, 11 columns, 33 nonzeros
Presolved model has 8 quadratic objective terms
Ordering time: 0.00s

Barrier statistics:
 Free vars  : 3
 AA' NZ     : 3.600e+01
 Factor NZ  : 4.500e+01
 Factor Ops : 2.850e+02 (less than 1 second per iteration)
 Threads    : 1

                  Objective                Residual
Iter       Primal          Dual         Primal    Dual     Compl     Time
   0   5.01676708e+05 -5.01684712e+05  3.00e+03 1.00e+03  1.00e+06     0s
   1   2.16764720e+05 -2.19406003e+05  4.97e+02 1.66e+02  1.96e+05     0s
   2   1.65586633e+04 -2.19133720e+04  8.04e+01 2.68e+01  3.45e+04     0s
   3   7.70721853e+00 -6.26332346e+03  8.04e-05 2.68e-05  7.84e+02     0s
   4   7.67028468e+00 -1.77897673e+01  2.42e-07 8.05e-08  3.18e+00     0s
   5   3.08516112e+00 -4.29217384e+00  2.41e-13 8.04e-14  9.22e-01     0s
   6   2.76247854e+00  2.67246059e+00  5.54e-16 2.22e-16  1.13e-02     0s
   7   2.76081294e+00  2.76063450e+00  1.83e-15 4.44e-16  2.23e-05     0s
   8   2.76081188e+00  2.76081170e+00  3.41e-15 0.00e+00  2.23e-08     0s
   9   2.76081187e+00  2.76081187e+00  5.13e-15 1.11e-16  2.23e-11     0s

Barrier solved model in 9 iterations and 0.00 seconds
Optimal objective 2.76081187e+00

